0 1919
1 1882
2 1838
3 1777
4 1694
5 1688
6 1603
7 1517
8 1517
9 1459
10 1459
11 1459
12 1422
13 1422
14 1422
15 1422
16 1411
17 1383
18 1383
19 1358
20 1358
21 1358
22 1352
23 1287
24 1287
25 1287
26 1274
27 1251
28 1251
29 1238
30 1231
31 1231
32 1219
33 1204
34 1204
35 1179
36 1179
37 1179
38 1148
39 1148
40 1111
41 1111
42 1111
43 1111
44 1111
45 1111
46 1111
47 1099
48 1099
49 1099
50 1099
51 1099
52 1088
53 1057
54 1057
55 1057
56 1034
57 1034
58 1034
59 1034
60 1034
61 1034
62 1034
63 1033
64 1033
65 1033
66 1033
67 1033
68 1033
69 1033
70 1016
71 1016
72 1007
73 1007
74 1007
75 1007
76 1007
77 1007
78 1007
79 1005
80 1005
81 1005
82 1005
83 1005
84 990
85 990
86 990
87 990
88 990
89 990
90 990
91 988
92 988
93 988
94 988
95 987
96 987
97 987
98 987
99 981
100 981
101 981
102 981
103 963
104 963
105 963
106 963
107 963
108 963
109 963
110 963
111 963
112 963
113 963
114 962
115 962
116 962
117 962
118 962
119 962
120 962
121 960
122 960
123 948
124 948
125 948
126 948
127 948
128 948
129 948
130 948
131 948
132 924
133 924
134 924
135 924
136 924
137 924
138 924
139 924
140 924
141 924
142 924
143 924
144 924
145 924
146 924
147 924
148 924
149 924
150 921
151 921
152 921
153 921
154 921
155 921
156 921
157 921
158 915
159 915
160 915
161 915
162 904
163 904
164 904
165 904
166 904
167 904
168 904
169 904
170 904
171 904
172 904
173 904
174 904
175 904
176 904
177 904
178 904
179 898
180 898
181 898
182 898
183 898
184 898
185 898
186 898
187 898
188 898
189 898
190 898
191 898
192 898
193 898
194 897
195 897
196 897
197 897
198 897
199 897
200 897
201 897
202 897
203 897
204 897
205 897
206 897
207 897
208 897
209 897
210 897
211 897
212 897
213 897
214 897
215 897
216 897
217 897
218 897
219 897
220 897
221 897
222 897
223 897
224 897
225 897
226 897
227 897
228 897
229 897
230 897
231 897
232 897
233 897
234 885
235 885
236 885
237 885
238 885
239 885
240 885
241 885
242 885
243 885
244 885
245 885
246 885
247 885
248 885
249 885
250 885
251 885
252 885
253 885
254 885
255 885
256 885
257 885
258 885
259 885
260 885
261 885
262 885
263 885
264 885
265 885
266 885
267 885
268 885
269 885
270 885
271 885
272 885
273 885
274 885
275 884
276 884
277 884
278 884
279 884
280 884
281 884
282 884
283 884
284 884
285 884
286 884
287 884
288 884
289 884
290 884
291 884
292 884
293 884
294 884
295 884
296 884
297 884
298 884
299 884
300 884
301 884
302 884
303 884
304 884
305 884
306 884
307 884
308 884
309 884
310 884
311 884
312 884
313 884
314 884
315 884
316 884
317 884
318 884
319 884
320 884
321 884
322 884
323 884
324 884
325 884
326 884
327 884
328 884
329 884
330 884
331 884
332 884
333 884
334 884
335 884
336 884
337 884
338 884
339 884
340 884
341 884
342 884
343 884
344 884
345 884
346 884
347 884
348 884
349 884
350 884
351 884
352 884
353 884
354 884
355 884
356 884
357 884
358 884
359 884
360 884
361 884
362 884
363 884
364 884
365 884
366 884
367 884
368 884
369 884
370 884
371 884
372 884
373 884
374 884
375 884
376 884
377 884
378 884
379 884
380 884
381 884
382 884
383 884
384 884
385 884
386 884
387 884
388 884
389 884
390 884
391 871
392 871
393 871
394 871
395 871
396 871
397 871
398 871
399 871
400 871
401 871
402 871
403 871
404 871
405 871
406 871
407 871
408 871
409 871
410 871
411 871
412 871
413 871
414 871
415 871
416 871
417 871
418 871
419 871
420 871
421 871
422 871
423 871
424 871
425 871
426 871
427 871
428 871
429 871
430 871
431 871
432 871
433 871
434 871
435 871
436 871
437 871
438 871
439 871
440 871
441 871
442 871
443 871
444 871
445 871
446 871
447 871
448 871
449 871
450 871
451 871
452 871
453 871
454 871
455 871
456 871
457 871
458 871
459 871
460 871
461 871
462 871
463 871
464 871
465 871
466 871
467 871
468 871
469 871
470 871
471 871
472 871
473 871
474 871
475 871
476 871
477 871
478 871
479 871
480 871
481 871
482 871
483 871
484 871
485 871
486 871
487 871
488 871
489 871
490 871
491 871
492 871
493 871
494 871
495 871
496 871
497 871
498 871
499 871
500 871
501 871
502 871
503 871
504 871
505 871
506 871
507 871
508 871
509 871
510 871
511 871
512 871
513 871
514 871
515 871
516 871
517 871
518 871
519 871
520 871
521 871
522 871
523 871
524 871
525 871
526 871
527 871
528 871
529 871
530 871
531 871
532 871
533 871
534 871
535 871
536 871
537 871
538 871
539 871
540 871
541 871
542 871
543 871
544 871
545 871
546 871
547 871
548 871
549 871
550 871
551 871
552 871
553 871
554 871
555 871
556 871
557 871
558 871
559 871
560 871
561 871
562 871
563 871
564 871
565 871
566 871
567 871
568 871
569 871
570 871
571 871
572 871
573 871
574 871
575 871
576 871
577 871
578 871
579 871
580 871
581 871
582 871
583 871
584 871
585 871
586 871
587 871
588 871
589 871
590 871
591 871
592 871
593 871
594 871
595 871
596 871
597 871
598 871
599 871
600 871
601 871
602 871
603 871
604 871
605 871
606 871
607 871
608 871
609 871
610 871
611 871
612 871
613 871
614 871
615 871
616 871
617 871
618 871
619 871
620 871
621 871
622 871
623 871
624 871
625 871
626 871
627 871
628 871
629 871
630 871
631 871
632 871
633 871
634 871
635 871
636 871
637 871
638 871
639 871
640 871
641 871
642 871
643 871
644 871
645 871
646 871
647 871
648 871
649 871
650 871
651 871
652 871
653 871
654 871
655 871
656 871
657 871
658 871
659 871
660 871
661 871
662 871
663 871
664 871
665 871
666 871
667 871
668 871
669 871
670 871
671 871
672 871
673 871
674 871
675 871
676 871
677 871
678 871
679 871
680 871
681 871
682 871
683 871
684 871
685 871
686 871
687 871
688 871
689 871
690 871
691 871
692 871
693 871
694 871
695 871
696 871
697 871
698 871
699 871
700 871
701 871
702 871
703 871
704 871
705 871
706 871
707 871
708 871
709 871
710 871
711 871
712 871
713 871
714 871
715 871
716 871
717 871
718 871
719 871
720 871
721 871
722 871
723 871
724 871
725 871
726 871
727 871
728 871
729 871
730 871
731 871
732 871
733 871
734 871
735 871
736 871
737 871
738 871
739 871
740 871
741 871
742 871
743 871
744 871
745 871
746 871
747 871
748 871
749 871
750 871
751 871
752 871
753 871
754 871
755 871
756 871
757 871
758 871
759 871
760 871
761 871
762 871
763 871
764 871
765 871
766 871
767 871
768 871
769 871
770 871
771 871
772 871
773 871
774 871
775 871
776 871
777 871
778 871
779 871
780 871
781 871
782 871
783 871
784 871
785 871
786 871
787 871
788 871
789 871
790 871
791 871
792 871
793 871
794 871
795 871
796 871
797 871
798 871
799 871
800 871
801 871
802 871
803 871
804 871
805 871
806 871
807 871
808 871
809 871
810 871
811 871
812 871
813 871
814 871
815 871
816 871
817 871
818 871
819 871
820 871
821 871
822 871
823 871
824 871
825 871
826 871
827 871
828 871
829 871
830 871
831 871
832 871
833 871
834 871
835 871
836 871
837 871
838 871
839 871
840 871
841 871
842 871
843 871
844 871
845 871
846 871
847 871
848 871
849 871
850 871
851 871
852 871
853 871
854 871
855 871
856 871
857 871
858 871
859 871
860 871
861 871
862 871
863 871
864 871
865 871
866 871
867 871
868 871
869 871
870 871
871 871
872 871
873 871
874 871
875 871
876 871
877 871
878 871
879 871
880 871
881 871
882 871
883 871
884 871
885 871
886 871
887 871
888 871
889 871
890 871
891 871
892 871
893 871
894 871
895 871
896 871
897 871
898 871
899 871
900 871
901 871
902 871
903 871
904 871
905 871
906 871
907 871
908 871
909 871
910 871
911 871
912 871
913 871
914 871
915 871
916 871
917 871
918 871
919 871
920 871
921 871
922 871
923 871
924 871
925 871
926 871
927 871
928 871
929 871
930 871
931 871
932 871
933 871
934 871
935 871
936 871
937 871
938 871
939 871
940 871
941 871
942 871
943 871
944 871
945 871
946 871
947 871
948 871
949 871
950 871
951 871
952 871
953 871
954 871
955 871
956 871
957 871
958 871
959 871
960 871
961 871
962 871
963 871
964 871
965 871
966 871
967 871
968 871
969 871
970 871
971 871
972 871
973 871
974 871
975 871
976 871
977 871
978 871
979 871
980 871
981 871
982 871
983 871
984 871
985 871
986 871
987 871
988 871
989 871
990 871
991 871
992 871
993 871
994 871
995 871
996 871
997 871
998 871
999 871
Best: [[25,15,29,5,12,9],
       [27,8,14,22,32,20,18],
       [31,17,2,13],
       [28,30,11,26,6,21],
       [7,4,3,24,19,10,23,16]], fitness: 871
